1 1 6 1 8 1 9 1 8 1 6 1 2 6 2 1 6 1 8 1 9 1 8 1 6 1 1 6 
1 1 6 1 8 1 9 1 8 1 6 1 2 6 11 1 9 1 8 1 9 1 8 1 6 1 1 6
1 1 6 1 8 1 9 1 8 1 6 1 2 6 2 1 6 1 8 1 9 1 8 1 6 1 1 6 
1 1 6 1 8 1 9 1 8 1 6 1 2 6 11 1 9 1 8 1 9 1 8 1 6 1 1 6
4 1 6 1 8 1 9 1 14 1 13 1 11 1 13 1 11 1 9 1 6 5 7 3 13 1 11 1 9 1 11 1 9 1 8 1 6 6 
14 1 13 1 11 1 13 1 11 1 9 1 6 5 7 3 13 6 
18 1 16 1 14 1 16 1 14 1 13 1 11 6 
20 1 18 1 16 1 14 1 13 1 11 1 9 6 
6 1 7 1 6 1 7 1 9 3 6 1 7 1 6 1 7 1 9 3 6 1 7 1 6 1 7 1 9 1 6 1 11 3 